10 965
520 7 466 10
521 7 475 7 331 11
525 7 484 7 368 7 123 9 859 11 681 18
525 7 482 7 362 7 118 9 855 11 673 18
525 7 482 7 365 7 115 9 943 13
525 7 482 7 358 7 165 12
525 7 482 7 365 7 115 9 943 13
525 7 482 7 358 7 165 12
525 7 482 7 358 7 165 12
525 7 482 7 358 7 165 12
